p cnf 28 30
-1 24 0 
-2 -3 17 25 0 
-4 9 26 0 
-5 25 0 
-6 27 0 
-7 14 16 26 0 
-7 14 16 24 0 
-8 26 0 
-9 4 24 0 
-10 24 0 
-3 17 24 0 
-5 24 0 
-2 -11 15 19 21 -12 13 22 28 0 
-13 12 22 24 0 
-14 7 16 26 0 
-15 11 19 21 26 0 
-15 11 19 21 24 0 
-13 12 22 26 0 
-13 12 22 24 0 
-16 7 14 26 0 
-17 3 -9 4 -18 23 28 0 
-4 9 24 0 
-19 11 15 21 26 0 
-20 -21 11 15 19 -9 4 28 0 
-22 12 13 26 0 
-18 23 28 0 
-15 11 19 21 24 0 
-7 14 16 -5 -1 -23 18 26 0 
-16 7 14 24 0 
-1 -5 24 0 
